c random cnf
p cnf 50 50
-15 48 0
-26 36 0
15 30 0
-38 -46 0
-20 36 0
13 -32 0
-24 46 0
-22 -31 0
-9 -20 0
35 -38 0
-2 36 0
-1 -26 0
-18 41 0
9 27 0
-13 17 0
13 38 0
12 49 0
10 33 0
2 46 0
6 -19 0
-37 50 0
11 31 0
20 41 0
8 -43 0
-10 22 0
34 -35 0
22 43 0
32 42 0
19 28 0
28 -41 0
19 -30 0
-37 -43 0
-14 39 0
20 38 0
5 -31 0
-47 -48 0
-7 21 0
18 -46 0
-13 37 0
-6 29 0
-10 39 0
-18 21 0
-10 -50 0
-3 -26 0
-37 -41 0
-9 16 0
5 8 0
31 -41 0
-13 48 0
-24 31 0
